results - Copia/sol/URT_02_makespan_heurTrue.sol
# Solution for model JobShopModel
# Objective value = 42
y[0,0,0] 1
y[0,1,0] 1
y[1,0,0] 1
y[1,1,0] 1
x[0,0,0,0] 0
x[0,0,0,1] 1
x[0,0,1,0] 0
x[0,0,1,1] 1
x[0,1,0,0] 0
x[0,1,0,1] 0
x[0,1,1,0] 0
x[0,1,1,1] 1
x[1,0,0,0] 0
x[1,0,0,1] 0
x[1,0,1,0] 0
x[1,0,1,1] 1
x[1,1,0,0] 0
x[1,1,0,1] 0
x[1,1,1,0] 0
x[1,1,1,1] 0
s[0,0,0] 11
s[0,1,0] 6
s[1,0,0] 25
s[1,1,0] 0
Z_FO 42
