results/log/URT_02_makespan_heurTrue.log

Gurobi 10.0.1 (win64) logging started Fri Oct  6 16:53:09 2023

Set parameter LogFile to value "./results//log/URT_02_makespan_heurTrue.log"
Gurobi Optimizer version 10.0.1 build v10.0.1rc0 (win64)

CPU model: AMD Ryzen 7 3700X 8-Core Processor, instruction set [SSE2|AVX|AVX2]
Thread count: 8 physical cores, 16 logical processors, using up to 16 threads

Optimize a model with 35 rows, 25 columns and 113 nonzeros
Model fingerprint: 0x892a2727
Variable types: 0 continuous, 25 integer (20 binary)
Coefficient statistics:
  Matrix range     [1e+00, 1e+07]
  Objective range  [1e+00, 1e+00]
  Bounds range     [1e+00, 1e+00]
  RHS range        [1e+00, 3e+07]

User MIP start did not produce a new incumbent solution
User MIP start violates constraint initial_start_time_job0_stage0_machine0_constraint by 2.000000000

Found heuristic solution: objective 52.0000000
Presolve removed 24 rows and 20 columns
Presolve time: 0.02s
Presolved: 11 rows, 5 columns, 24 nonzeros
Variable types: 0 continuous, 5 integer (1 binary)
Found heuristic solution: objective 42.0000000

Explored 0 nodes (0 simplex iterations) in 0.02 seconds (0.00 work units)
Thread count was 16 (of 16 available processors)

Solution count 2: 42 52 

Optimal solution found (tolerance 1.00e-04)
Best objective 4.200000000000e+01, best bound 4.200000000000e+01, gap 0.0000%
Warning: constraint name "precedence between 0,0 to 0,1 if x_[0,0,0,1,0]=0, i.e. 0,1 before 0,0" has a space
Warning: constraint name "precedence between 0,0 to 0,1 if x_[0,0,0,1,0]=0, i.e. 0,1 before 0,0" has a space
Warning: default constraint names used to write mps file
